10641754239611054335015,9,1,2,08,7,1,2,08,15,1,2,05,10,1,2,06,13,1,2,011,9,1,2,03,1,1,2,02,8,1,2,015,14,1,2,01,5,1,2,07,11,1,2,07,9,1,2,02,5,1,2,03,13,1,2,013,2,1,2,07,1,1,2,07,11,1,2,07,5,1,2,012,6,1,2,012,6,1,2,012,3,1,2,09,3,1,2,011,2,1,2,03,3,1,2,012,15,1,2,03,11,1,2,09,8,1,2,013,11,1,2,010,3,1,2,08,10,1,2,011,1,1,2,04,10,1,2,05,10,1,2,04,1,1,2,03,10,1,2,011,6,1,2,010,11,1,2,012,3,1,2,09,9,1,2,01,13,1,2,05,12,1,2,03,5,1,2,02,2,1,2,013,9,1,2,014,10,1,2,013,10,1,2,01,10,1,2,014,15,1,2,04,8,1,2,06,6,1,2,0